p cnf 10 20
8 -9 -6 0 
-2 -5 6 -8 0 
-5 -7 4 -2 0 
-5 7 -2 -3 0
-8 10 -4 -5 0
-3 1 -7 -4 0
6 -4 -3 -8 0
3 -6 -9 -10
-1 3 -8 0
7 0
-4 5 -7 0
8 -1 -6 0
6 -9 0
-10 7 -2 -3 0
-7 -8 3 -2 0
-9 10 -2 -1 0 
-9 4 -1 -8 0
-3 5 -4 -8 0 
-5 2 -8 -3 0
-5 -9 2 -4 0